<number of tasks>
70

<cycle time>
251

<task times>
1 17
2 66
3 54
4 52
5 6
6 88
7 21
8 128
9 68
10 70
11 85
12 21
13 134
14 135
15 94
16 90
17 50
18 143
19 19
20 54
21 50
22 40
23 73
24 12
25 152
26 42
27 45
28 74
29 26
30 11
31 31
32 50
33 102
34 46
35 35
36 40
37 2
38 1
39 3
40 13
41 16
42 25
43 21
44 43
45 30
46 83
47 89
48 56
49 59
50 43
51 11
52 26
53 44
54 121
55 38
56 68
57 22
58 7
59 16
60 32
61 25
62 27
63 156
64 28
65 15
66 26
67 18
68 72
69 23
70 27

<precedence relations>
1,2
1,41
1,69
1,70
2,3
3,4
3,68
4,6
4,7
5,6
5,24
5,30
6,8
7,8
8,12
9,10
10,11
11,12
12,13
12,14
13,23
14,23
15,16
16,17
16,18
17,19
18,19
19,20
19,22
19,57
20,21
21,23
22,23
23,25
23,31
23,33
24,25
25,26
25,27
25,28
25,29
26,35
27,35
28,35
29,35
30,31
31,32
32,35
33,34
34,35
35,36
35,44
35,48
35,51
35,53
35,56
35,60
35,61
35,62
36,37
37,38
38,39
39,40
40,42
41,42
42,43
43,50
44,45
45,46
46,47
47,50
48,49
49,50
51,52
52,54
53,54
54,55
57,58
58,59
59,60
61,65
62,63
63,64
64,65
64,66
64,67

<setup times forward>
1,2:20
1,5:7
1,9:8
1,10:8
1,11:7
1,18:20
1,19:20
1,20:5
1,21:11
1,22:11
1,24:1
1,30:5
1,41:5
1,57:20
1,58:8
1,59:11
1,69:18
1,70:11
2,3:28
2,5:13
2,9:28
2,10:28
2,11:13
2,15:20
2,16:20
2,17:20
2,20:15
2,21:31
2,22:31
2,24:21
2,30:15
2,41:15
2,58:28
2,59:9
2,69:38
2,70:31
3,5:15
3,11:15
3,15:8
3,16:8
3,17:8
3,18:28
3,19:28
3,20:13
3,21:3
3,22:3
3,24:7
3,30:13
3,41:13
3,57:28
3,59:19
3,68:15
3,69:10
3,70:3
4,5:15
4,6:15
4,7:13
4,11:15
4,15:8
4,16:8
4,17:8
4,18:28
4,19:28
4,20:13
4,21:3
4,22:3
4,24:7
4,30:13
4,41:13
4,57:28
4,59:19
4,68:15
4,69:10
4,70:3
5,1:7
5,2:13
5,3:15
5,4:15
5,7:2
5,9:15
5,10:15
5,15:7
5,16:7
5,17:7
5,18:13
5,19:13
5,20:2
5,21:18
5,22:18
5,24:8
5,30:2
5,41:2
5,57:13
5,58:15
5,59:4
5,69:25
5,70:18
6,7:2
6,8:2
6,9:15
6,10:15
6,15:7
6,16:7
6,17:7
6,18:13
6,19:13
6,20:2
6,21:18
6,22:18
6,24:8
6,30:2
6,41:2
6,57:13
6,58:15
6,59:4
6,69:25
6,70:18
7,5:2
7,6:2
7,9:13
7,10:13
7,11:2
7,15:5
7,16:5
7,17:5
7,18:15
7,19:15
7,21:16
7,22:16
7,24:6
7,57:15
7,58:13
7,59:6
7,68:2
7,69:23
7,70:16
8,9:13
8,10:13
8,11:2
8,15:5
8,16:5
8,17:5
8,18:15
8,19:15
8,21:16
8,22:16
8,24:6
8,57:15
8,58:13
8,59:6
8,68:2
8,69:23
8,70:16
9,1:8
9,2:28
9,5:15
9,6:15
9,7:13
9,8:13
9,15:8
9,16:8
9,17:8
9,18:28
9,19:28
9,20:13
9,21:3
9,22:3
9,24:7
9,30:13
9,41:13
9,57:28
9,59:19
9,68:15
9,69:10
9,70:3
10,1:8
10,2:28
10,5:15
10,6:15
10,7:13
10,8:13
10,11:15
10,15:8
10,16:8
10,17:8
10,18:28
10,19:28
10,20:13
10,21:3
10,22:3
10,24:7
10,30:13
10,41:13
10,57:28
10,59:19
10,68:15
10,69:10
10,70:3
11,1:7
11,2:13
11,3:15
11,4:15
11,7:2
11,8:2
11,12:2
11,15:7
11,16:7
11,17:7
11,18:13
11,19:13
11,20:2
11,21:18
11,22:18
11,24:8
11,30:2
11,41:2
11,57:13
11,58:15
11,59:4
11,69:25
11,70:18
12,13:16
12,14:6
12,15:5
12,16:5
12,17:5
12,18:15
12,19:15
12,21:16
12,22:16
12,24:6
12,57:15
12,58:13
12,59:6
12,68:2
12,69:23
12,70:16
13,14:10
13,15:11
13,16:11
13,17:11
13,18:31
13,19:31
13,20:16
13,23:10
13,24:10
13,30:16
13,41:16
13,57:31
13,58:3
13,59:22
13,68:18
13,69:7
14,13:10
14,15:1
14,16:1
14,17:1
14,18:21
14,19:21
14,20:6
14,21:10
14,22:10
14,30:6
14,41:6
14,57:21
14,58:7
14,59:12
14,68:8
14,69:17
14,70:10
15,2:20
15,3:8
15,4:8
15,5:7
15,6:7
15,7:5
15,8:5
15,9:8
15,10:8
15,11:7
15,12:5
15,13:11
15,14:1
15,24:1
15,30:5
15,41:5
15,68:7
15,69:18
15,70:11
16,2:20
16,3:8
16,4:8
16,5:7
16,6:7
16,7:5
16,8:5
16,9:8
16,10:8
16,11:7
16,12:5
16,13:11
16,14:1
16,18:20
16,24:1
16,30:5
16,41:5
16,68:7
16,69:18
16,70:11
17,2:20
17,3:8
17,4:8
17,5:7
17,6:7
17,7:5
17,8:5
17,9:8
17,10:8
17,11:7
17,12:5
17,13:11
17,14:1
17,18:20
17,19:20
17,24:1
17,30:5
17,41:5
17,68:7
17,69:18
17,70:11
18,1:20
18,3:28
18,4:28
18,5:13
18,6:13
18,7:15
18,8:15
18,9:28
18,10:28
18,11:13
18,12:15
18,13:31
18,14:21
18,17:20
18,24:21
18,30:15
18,41:15
18,68:13
18,69:38
18,70:31
19,1:20
19,3:28
19,4:28
19,5:13
19,6:13
19,7:15
19,8:15
19,9:28
19,10:28
19,11:13
19,12:15
19,13:31
19,14:21
19,20:15
19,22:31
19,24:21
19,30:15
19,41:15
19,68:13
19,69:38
19,70:31
20,1:5
20,2:15
20,3:13
20,4:13
20,5:2
20,6:2
20,9:13
20,10:13
20,11:2
20,13:16
20,14:6
20,21:16
20,22:16
20,24:6
20,57:15
20,58:13
20,59:6
20,68:2
20,69:23
20,70:16
21,1:11
21,2:31
21,3:3
21,4:3
21,5:18
21,6:18
21,7:16
21,8:16
21,9:3
21,10:3
21,11:18
21,12:16
21,14:10
21,23:10
21,24:10
21,30:16
21,41:16
21,57:31
21,58:3
21,59:22
21,68:18
21,69:7
22,1:11
22,2:31
22,3:3
22,4:3
22,5:18
22,6:18
22,7:16
22,8:16
22,9:3
22,10:3
22,11:18
22,12:16
22,14:10
22,20:16
22,23:10
22,24:10
22,30:16
22,41:16
22,57:31
22,58:3
22,59:22
22,68:18
22,69:7
23,25:17
23,30:6
23,33:12
23,41:6
23,57:21
23,58:7
23,59:12
23,68:8
23,69:17
23,70:10
24,1:1
24,2:21
24,3:7
24,4:7
24,6:8
24,7:6
24,8:6
24,9:7
24,10:7
24,11:8
24,12:6
24,13:10
24,15:1
24,16:1
24,17:1
24,18:21
24,19:21
24,20:6
24,21:10
24,22:10
24,25:17
24,30:6
24,32:7
24,33:12
24,34:12
24,41:6
24,57:21
24,58:7
24,59:12
24,68:8
24,69:17
24,70:10
25,26:29
25,27:29
25,29:10
25,30:23
25,31:17
25,32:10
25,33:29
25,34:29
25,41:23
25,57:38
25,58:10
25,59:29
25,68:25
25,70:7
26,28:29
26,29:19
26,30:6
26,31:12
26,32:19
26,35:19
26,41:6
26,57:9
26,58:19
26,68:4
26,69:29
26,70:22
27,28:29
27,29:19
27,30:6
27,31:12
27,32:19
27,35:19
27,41:6
27,57:9
27,58:19
27,68:4
27,69:29
27,70:22
28,26:29
28,27:29
28,29:10
28,30:23
28,31:17
28,32:10
28,33:29
28,34:29
28,35:10
28,41:23
28,57:38
28,58:10
28,59:29
28,68:25
28,70:7
29,26:19
29,27:19
29,28:10
29,30:13
29,31:7
29,33:19
29,34:19
29,41:13
29,57:28
29,59:19
29,68:15
29,69:10
29,70:3
30,1:5
30,2:15
30,3:13
30,4:13
30,6:2
30,9:13
30,10:13
30,11:2
30,13:16
30,14:6
30,15:5
30,16:5
30,17:5
30,18:15
30,19:15
30,21:16
30,22:16
30,23:6
30,24:6
30,25:23
30,26:6
30,27:6
30,28:23
30,29:13
30,31:6
30,33:6
30,34:6
30,57:15
30,58:13
30,59:6
30,68:2
30,69:23
30,70:16
31,25:17
31,26:12
31,27:12
31,28:17
31,29:7
31,32:7
31,33:12
31,34:12
31,41:6
31,57:21
31,58:7
31,59:12
31,68:8
31,69:17
31,70:10
32,24:7
32,25:10
32,26:19
32,27:19
32,28:10
32,33:19
32,34:19
32,41:13
32,57:28
32,59:19
32,68:15
32,69:10
32,70:3
33,24:12
33,25:29
33,28:29
33,29:19
33,30:6
33,31:12
33,32:19
33,41:6
33,57:9
33,58:19
33,68:4
33,69:29
33,70:22
34,24:12
34,25:29
34,28:29
34,29:19
34,30:6
34,31:12
34,32:19
34,35:19
34,41:6
34,57:9
34,58:19
34,68:4
34,69:29
34,70:22
35,41:13
35,48:13
35,51:5
35,53:15
35,56:5
35,57:28
35,59:19
35,60:15
35,61:5
35,68:15
35,69:10
35,70:3
36,37:15
36,41:13
36,46:13
36,47:22
36,48:13
36,49:13
36,51:5
36,52:5
36,53:15
36,54:5
36,55:22
36,56:5
36,57:28
36,59:19
36,60:15
36,61:5
36,63:15
36,64:13
36,65:22
36,66:22
36,67:22
36,68:15
36,69:10
36,70:3
37,41:28
37,44:15
37,45:15
37,46:28
37,47:37
37,48:28
37,49:28
37,51:20
37,52:20
37,54:20
37,55:37
37,56:20
37,57:43
37,58:15
37,59:34
37,61:20
37,62:15
37,64:28
37,65:37
37,66:37
37,67:37
37,68:30
37,69:5
37,70:12
38,41:28
38,44:15
38,45:15
38,46:28
38,47:37
38,48:28
38,49:28
38,51:20
38,52:20
38,54:20
38,55:37
38,56:20
38,57:43
38,58:15
38,59:34
38,61:20
38,62:15
38,64:28
38,65:37
38,66:37
38,67:37
38,68:30
38,69:5
38,70:12
39,41:28
39,44:15
39,45:15
39,46:28
39,47:37
39,48:28
39,49:28
39,51:20
39,52:20
39,54:20
39,55:37
39,56:20
39,57:43
39,58:15
39,59:34
39,61:20
39,62:15
39,64:28
39,65:37
39,66:37
39,67:37
39,68:30
39,69:5
39,70:12
40,41:28
40,42:28
40,44:15
40,45:15
40,46:28
40,47:37
40,48:28
40,49:28
40,51:20
40,52:20
40,54:20
40,55:37
40,56:20
40,57:43
40,58:15
40,59:34
40,61:20
40,62:15
40,64:28
40,65:37
40,66:37
40,67:37
40,68:30
40,69:5
40,70:12
41,2:15
41,3:13
41,4:13
41,5:2
41,6:2
41,9:13
41,10:13
41,11:2
41,13:16
41,14:6
41,15:5
41,16:5
41,17:5
41,18:15
41,19:15
41,21:16
41,22:16
41,23:6
41,24:6
41,25:23
41,26:6
41,27:6
41,28:23
41,29:13
41,31:6
41,32:13
41,33:6
41,34:6
41,35:13
41,36:13
41,37:28
41,38:28
41,39:28
41,40:28
41,44:13
41,45:13
41,47:9
41,51:8
41,52:8
41,53:28
41,54:8
41,55:9
41,56:8
41,57:15
41,58:13
41,59:6
41,60:28
41,61:8
41,62:13
41,63:28
41,65:9
41,66:9
41,67:9
41,68:2
41,69:23
41,70:16
42,43:9
42,44:13
42,45:13
42,47:9
42,51:8
42,52:8
42,53:28
42,54:8
42,55:9
42,56:8
42,57:15
42,58:13
42,59:6
42,60:28
42,61:8
42,62:13
42,63:28
42,65:9
42,66:9
42,67:9
42,68:2
42,69:23
42,70:16
43,44:22
43,45:22
43,46:9
43,48:9
43,49:9
43,51:17
43,52:17
43,53:37
43,54:17
43,56:17
43,57:6
43,58:22
43,59:3
43,60:37
43,61:17
43,62:22
43,63:37
43,64:9
43,68:7
43,69:32
43,70:25
44,37:15
44,38:15
44,39:15
44,40:15
44,41:13
44,42:13
44,43:22
44,48:13
44,49:13
44,51:5
44,52:5
44,53:15
44,54:5
44,55:22
44,56:5
44,57:28
44,59:19
44,60:15
44,61:5
44,63:15
44,64:13
44,65:22
44,66:22
44,67:22
44,68:15
44,69:10
44,70:3
45,37:15
45,38:15
45,39:15
45,40:15
45,41:13
45,42:13
45,43:22
45,46:13
45,48:13
45,49:13
45,51:5
45,52:5
45,53:15
45,54:5
45,55:22
45,56:5
45,57:28
45,59:19
45,60:15
45,61:5
45,63:15
45,64:13
45,65:22
45,66:22
45,67:22
45,68:15
45,69:10
45,70:3
46,36:13
46,37:28
46,38:28
46,39:28
46,40:28
46,43:9
46,47:9
46,51:8
46,52:8
46,53:28
46,54:8
46,55:9
46,56:8
46,57:15
46,58:13
46,59:6
46,60:28
46,61:8
46,62:13
46,63:28
46,65:9
46,66:9
46,67:9
46,68:2
46,69:23
46,70:16
47,36:22
47,37:37
47,38:37
47,39:37
47,40:37
47,41:9
47,42:9
47,48:9
47,49:9
47,51:17
47,52:17
47,53:37
47,54:17
47,56:17
47,57:6
47,58:22
47,59:3
47,60:37
47,61:17
47,62:22
47,63:37
47,64:9
47,68:7
47,69:32
47,70:25
48,36:13
48,37:28
48,38:28
48,39:28
48,40:28
48,43:9
48,44:13
48,45:13
48,47:9
48,51:8
48,52:8
48,53:28
48,54:8
48,55:9
48,56:8
48,57:15
48,58:13
48,59:6
48,60:28
48,61:8
48,62:13
48,63:28
48,65:9
48,66:9
48,67:9
48,68:2
48,69:23
48,70:16
49,36:13
49,37:28
49,38:28
49,39:28
49,40:28
49,43:9
49,44:13
49,45:13
49,47:9
49,50:9
49,51:8
49,52:8
49,53:28
49,54:8
49,55:9
49,56:8
49,57:15
49,58:13
49,59:6
49,60:28
49,61:8
49,62:13
49,63:28
49,65:9
49,66:9
49,67:9
49,68:2
49,69:23
49,70:16
50,51:17
50,52:17
50,53:37
50,54:17
50,56:17
50,57:6
50,58:22
50,59:3
50,60:37
50,61:17
50,62:22
50,63:37
50,64:9
50,68:7
50,69:32
50,70:25
51,36:5
51,37:20
51,38:20
51,39:20
51,40:20
51,41:8
51,42:8
51,43:17
51,44:5
51,45:5
51,46:8
51,47:17
51,48:8
51,49:8
51,50:17
51,53:20
51,57:23
51,58:5
51,59:14
51,60:20
51,62:5
51,63:20
51,64:8
51,65:17
51,66:17
51,67:17
51,68:10
51,69:15
51,70:8
52,36:5
52,37:20
52,38:20
52,39:20
52,40:20
52,41:8
52,42:8
52,43:17
52,44:5
52,45:5
52,46:8
52,47:17
52,48:8
52,49:8
52,50:17
52,53:20
52,57:23
52,58:5
52,59:14
52,60:20
52,62:5
52,63:20
52,64:8
52,65:17
52,66:17
52,67:17
52,68:10
52,69:15
52,70:8
53,36:15
53,41:28
53,42:28
53,43:37
53,44:15
53,45:15
53,46:28
53,47:37
53,48:28
53,49:28
53,50:37
53,51:20
53,52:20
53,54:20
53,56:20
53,57:43
53,58:15
53,59:34
53,61:20
53,62:15
53,64:28
53,65:37
53,66:37
53,67:37
53,68:30
53,69:5
53,70:12
54,36:5
54,37:20
54,38:20
54,39:20
54,40:20
54,41:8
54,42:8
54,43:17
54,44:5
54,45:5
54,46:8
54,47:17
54,48:8
54,49:8
54,50:17
54,55:17
54,57:23
54,58:5
54,59:14
54,60:20
54,62:5
54,63:20
54,64:8
54,65:17
54,66:17
54,67:17
54,68:10
54,69:15
54,70:8
55,36:22
55,37:37
55,38:37
55,39:37
55,40:37
55,41:9
55,42:9
55,44:22
55,45:22
55,46:9
55,48:9
55,49:9
55,56:17
55,57:6
55,58:22
55,59:3
55,60:37
55,61:17
55,62:22
55,63:37
55,64:9
55,68:7
55,69:32
55,70:25
56,36:5
56,37:20
56,38:20
56,39:20
56,40:20
56,41:8
56,42:8
56,43:17
56,44:5
56,45:5
56,46:8
56,47:17
56,48:8
56,49:8
56,50:17
56,53:20
56,55:17
56,57:23
56,58:5
56,59:14
56,60:20
56,62:5
56,63:20
56,64:8
56,65:17
56,66:17
56,67:17
56,68:10
56,69:15
56,70:8
57,1:20
57,3:28
57,4:28
57,5:13
57,6:13
57,7:15
57,8:15
57,9:28
57,10:28
57,11:13
57,12:15
57,13:31
57,14:21
57,20:15
57,21:31
57,22:31
57,23:21
57,24:21
57,25:38
57,26:9
57,27:9
57,28:38
57,29:28
57,30:15
57,31:21
57,32:28
57,33:9
57,34:9
57,35:28
57,36:28
57,37:43
57,38:43
57,39:43
57,40:43
57,41:15
57,42:15
57,43:6
57,44:28
57,45:28
57,46:15
57,47:6
57,48:15
57,49:15
57,50:6
57,51:23
57,52:23
57,53:43
57,54:23
57,55:6
57,56:23
57,58:28
57,61:23
57,62:28
57,63:43
57,64:15
57,65:6
57,66:6
57,67:6
57,68:13
57,69:38
57,70:31
58,1:8
58,2:28
58,5:15
58,6:15
58,7:13
58,8:13
58,11:15
58,12:13
58,13:3
58,14:7
58,20:13
58,21:3
58,22:3
58,23:7
58,24:7
58,25:10
58,26:19
58,27:19
58,28:10
58,30:13
58,31:7
58,33:19
58,34:19
58,37:15
58,38:15
58,39:15
58,40:15
58,41:13
58,42:13
58,43:22
58,46:13
58,47:22
58,48:13
58,49:13
58,50:22
58,51:5
58,52:5
58,53:15
58,54:5
58,55:22
58,56:5
58,59:19
58,61:5
58,63:15
58,64:13
58,65:22
58,66:22
58,67:22
58,68:15
58,69:10
58,70:3
59,1:11
59,2:9
59,3:19
59,4:19
59,5:4
59,6:4
59,7:6
59,8:6
59,9:19
59,10:19
59,11:4
59,12:6
59,13:22
59,14:12
59,20:6
59,21:22
59,22:22
59,23:12
59,24:12
59,25:29
59,28:29
59,29:19
59,30:6
59,31:12
59,32:19
59,35:19
59,36:19
59,37:34
59,38:34
59,39:34
59,40:34
59,41:6
59,42:6
59,43:3
59,44:19
59,45:19
59,46:6
59,47:3
59,48:6
59,49:6
59,50:3
59,51:14
59,52:14
59,53:34
59,54:14
59,55:3
59,56:14
59,60:34
59,61:14
59,62:19
59,63:34
59,64:6
59,65:3
59,66:3
59,67:3
59,68:4
59,69:29
59,70:22
60,36:15
60,41:28
60,42:28
60,43:37
60,44:15
60,45:15
60,46:28
60,47:37
60,48:28
60,49:28
60,50:37
60,51:20
60,52:20
60,54:20
60,55:37
60,56:20
60,61:20
60,62:15
60,64:28
60,65:37
60,66:37
60,67:37
60,68:30
60,69:5
60,70:12
61,36:5
61,37:20
61,38:20
61,39:20
61,40:20
61,41:8
61,42:8
61,43:17
61,44:5
61,45:5
61,46:8
61,47:17
61,48:8
61,49:8
61,50:17
61,53:20
61,55:17
61,57:23
61,58:5
61,59:14
61,60:20
61,62:5
61,63:20
61,64:8
61,65:17
61,66:17
61,67:17
61,68:10
61,69:15
61,70:8
62,37:15
62,38:15
62,39:15
62,40:15
62,41:13
62,42:13
62,43:22
62,46:13
62,47:22
62,48:13
62,49:13
62,50:22
62,51:5
62,52:5
62,53:15
62,54:5
62,55:22
62,56:5
62,57:28
62,59:19
62,60:15
62,61:5
62,63:15
62,68:15
62,69:10
62,70:3
63,36:15
63,41:28
63,42:28
63,43:37
63,44:15
63,45:15
63,46:28
63,47:37
63,48:28
63,49:28
63,50:37
63,51:20
63,52:20
63,54:20
63,55:37
63,56:20
63,57:43
63,58:15
63,59:34
63,61:20
63,64:28
63,68:30
63,69:5
63,70:12
64,36:13
64,37:28
64,38:28
64,39:28
64,40:28
64,43:9
64,44:13
64,45:13
64,47:9
64,50:9
64,51:8
64,52:8
64,53:28
64,54:8
64,55:9
64,56:8
64,57:15
64,58:13
64,59:6
64,60:28
64,61:8
64,65:9
64,66:9
64,67:9
64,68:2
64,69:23
64,70:16
65,36:22
65,37:37
65,38:37
65,39:37
65,40:37
65,41:9
65,42:9
65,44:22
65,45:22
65,46:9
65,48:9
65,49:9
65,51:17
65,52:17
65,53:37
65,54:17
65,56:17
65,57:6
65,58:22
65,59:3
65,60:37
65,68:7
65,69:32
65,70:25
66,36:22
66,37:37
66,38:37
66,39:37
66,40:37
66,41:9
66,42:9
66,44:22
66,45:22
66,46:9
66,48:9
66,49:9
66,51:17
66,52:17
66,53:37
66,54:17
66,56:17
66,57:6
66,58:22
66,59:3
66,60:37
66,61:17
66,68:7
66,69:32
66,70:25
67,36:22
67,37:37
67,38:37
67,39:37
67,40:37
67,41:9
67,42:9
67,44:22
67,45:22
67,46:9
67,48:9
67,49:9
67,51:17
67,52:17
67,53:37
67,54:17
67,56:17
67,57:6
67,58:22
67,59:3
67,60:37
67,61:17
67,68:7
67,69:32
67,70:25
68,4:15
68,7:2
68,8:2
68,9:15
68,10:15
68,12:2
68,13:18
68,14:8
68,15:7
68,16:7
68,17:7
68,18:13
68,19:13
68,20:2
68,21:18
68,22:18
68,23:8
68,24:8
68,25:25
68,26:4
68,27:4
68,28:25
68,29:15
68,30:2
68,31:8
68,32:15
68,33:4
68,34:4
68,35:15
68,36:15
68,37:30
68,38:30
68,39:30
68,40:30
68,41:2
68,42:2
68,43:7
68,44:15
68,45:15
68,46:2
68,47:7
68,48:2
68,49:2
68,50:7
68,51:10
68,52:10
68,53:30
68,54:10
68,55:7
68,56:10
68,57:13
68,58:15
68,59:4
68,60:30
68,61:10
68,62:15
68,63:30
68,64:2
68,65:7
68,66:7
68,67:7
68,69:25
68,70:18
69,2:38
69,3:10
69,4:10
69,5:25
69,6:25
69,7:23
69,8:23
69,9:10
69,10:10
69,11:25
69,12:23
69,13:7
69,14:17
69,15:18
69,16:18
69,17:18
69,18:38
69,19:38
69,20:23
69,21:7
69,22:7
69,23:17
69,24:17
69,26:29
69,27:29
69,29:10
69,30:23
69,31:17
69,32:10
69,33:29
69,34:29
69,35:10
69,36:10
69,37:5
69,38:5
69,39:5
69,40:5
69,41:23
69,42:23
69,43:32
69,44:10
69,45:10
69,46:23
69,47:32
69,48:23
69,49:23
69,50:32
69,51:15
69,52:15
69,53:5
69,54:15
69,55:32
69,56:15
69,57:38
69,58:10
69,59:29
69,60:5
69,61:15
69,62:10
69,63:5
69,64:23
69,65:32
69,66:32
69,67:32
69,68:25
69,70:7
70,2:31
70,3:3
70,4:3
70,5:18
70,6:18
70,7:16
70,8:16
70,9:3
70,10:3
70,11:18
70,12:16
70,14:10
70,15:11
70,16:11
70,17:11
70,18:31
70,19:31
70,20:16
70,23:10
70,24:10
70,25:7
70,26:22
70,27:22
70,28:7
70,29:3
70,30:16
70,31:10
70,32:3
70,33:22
70,34:22
70,35:3
70,36:3
70,37:12
70,38:12
70,39:12
70,40:12
70,41:16
70,42:16
70,43:25
70,44:3
70,45:3
70,46:16
70,47:25
70,48:16
70,49:16
70,50:25
70,51:8
70,52:8
70,53:12
70,54:8
70,55:25
70,56:8
70,57:31
70,58:3
70,59:22
70,60:12
70,61:8
70,62:3
70,63:12
70,64:16
70,65:25
70,66:25
70,67:25
70,68:18
70,69:7

<setup times backward>
1,9:8
1,10:8
1,21:11
1,22:11
1,24:1
1,58:8
2,1:20
2,5:13
2,9:28
2,10:28
2,11:13
2,15:20
2,16:20
2,17:20
2,20:15
2,21:31
2,22:31
2,24:21
2,30:15
2,41:15
2,58:28
2,59:9
2,69:38
2,70:31
3,21:3
3,22:3
3,69:10
3,70:3
4,21:3
4,22:3
4,69:10
4,70:3
5,1:7
5,3:15
5,4:15
5,7:2
5,9:15
5,10:15
5,15:7
5,16:7
5,17:7
5,20:2
5,21:18
5,22:18
5,41:2
5,58:15
5,69:25
5,70:18
6,1:7
6,3:15
6,4:15
6,7:2
6,9:15
6,10:15
6,15:7
6,16:7
6,17:7
6,20:2
6,21:18
6,22:18
6,24:8
6,30:2
6,41:2
6,58:15
6,69:25
6,70:18
7,1:5
7,3:13
7,4:13
7,9:13
7,10:13
7,15:5
7,16:5
7,17:5
7,21:16
7,22:16
7,24:6
7,58:13
7,69:23
7,70:16
8,1:5
8,3:13
8,4:13
8,9:13
8,10:13
8,15:5
8,16:5
8,17:5
8,21:16
8,22:16
8,24:6
8,58:13
8,69:23
8,70:16
9,21:3
9,22:3
9,69:10
9,70:3
10,21:3
10,22:3
10,69:10
10,70:3
11,1:7
11,3:15
11,4:15
11,7:2
11,8:2
11,9:15
11,10:15
11,15:7
11,16:7
11,17:7
11,20:2
11,21:18
11,22:18
11,24:8
11,30:2
11,41:2
11,58:15
11,69:25
11,70:18
12,1:5
12,3:13
12,4:13
12,9:13
12,10:13
12,15:5
12,16:5
12,17:5
12,21:16
12,22:16
12,24:6
12,58:13
12,69:23
12,70:16
13,69:7
14,3:7
14,4:7
14,9:7
14,10:7
14,13:10
14,21:10
14,22:10
14,58:7
14,69:17
14,70:10
15,3:8
15,4:8
15,9:8
15,10:8
15,13:11
15,14:1
15,24:1
15,69:18
15,70:11
16,3:8
16,4:8
16,9:8
16,10:8
16,13:11
16,14:1
16,24:1
16,69:18
16,70:11
17,3:8
17,4:8
17,9:8
17,10:8
17,13:11
17,14:1
17,24:1
17,69:18
17,70:11
18,1:20
18,3:28
18,4:28
18,5:13
18,6:13
18,7:15
18,8:15
18,9:28
18,10:28
18,11:13
18,12:15
18,13:31
18,14:21
18,15:20
18,16:20
18,17:20
18,24:21
18,30:15
18,41:15
18,68:13
18,69:38
18,70:31
19,1:20
19,3:28
19,4:28
19,5:13
19,6:13
19,7:15
19,8:15
19,9:28
19,10:28
19,11:13
19,12:15
19,13:31
19,14:21
19,15:20
19,16:20
19,17:20
19,24:21
19,30:15
19,41:15
19,68:13
19,69:38
19,70:31
20,1:5
20,3:13
20,4:13
20,9:13
20,10:13
20,13:16
20,14:6
20,15:5
20,16:5
20,17:5
20,22:16
20,24:6
20,58:13
20,69:23
20,70:16
21,69:7
22,69:7
23,3:7
23,4:7
23,9:7
23,10:7
23,13:10
23,21:10
23,22:10
23,58:7
23,69:17
23,70:10
24,3:7
24,4:7
24,9:7
24,10:7
24,13:10
24,21:10
24,22:10
24,32:7
24,58:7
24,69:17
24,70:10
26,1:11
26,3:19
26,4:19
26,5:4
26,6:4
26,7:6
26,8:6
26,9:19
26,10:19
26,11:4
26,12:6
26,13:22
26,14:12
26,15:11
26,16:11
26,17:11
26,20:6
26,21:22
26,22:22
26,23:12
26,24:12
26,25:29
26,28:29
26,29:19
26,30:6
26,31:12
26,32:19
26,41:6
26,58:19
26,68:4
26,69:29
26,70:22
27,1:11
27,3:19
27,4:19
27,5:4
27,6:4
27,7:6
27,8:6
27,9:19
27,10:19
27,11:4
27,12:6
27,13:22
27,14:12
27,15:11
27,16:11
27,17:11
27,20:6
27,21:22
27,22:22
27,23:12
27,24:12
27,25:29
27,28:29
27,29:19
27,30:6
27,31:12
27,32:19
27,41:6
27,58:19
27,68:4
27,69:29
27,70:22
29,13:3
29,21:3
29,22:3
29,25:10
29,28:10
29,69:10
29,70:3
30,1:5
30,3:13
30,4:13
30,9:13
30,10:13
30,13:16
30,14:6
30,15:5
30,16:5
30,17:5
30,21:16
30,22:16
30,23:6
30,24:6
30,25:23
30,28:23
30,29:13
30,58:13
30,69:23
30,70:16
31,3:7
31,4:7
31,9:7
31,10:7
31,13:10
31,21:10
31,22:10
31,25:17
31,28:17
31,29:7
31,58:7
31,69:17
31,70:10
32,13:3
32,21:3
32,22:3
32,25:10
32,28:10
32,69:10
32,70:3
33,1:11
33,3:19
33,4:19
33,5:4
33,6:4
33,7:6
33,8:6
33,9:19
33,10:19
33,11:4
33,12:6
33,13:22
33,14:12
33,15:11
33,16:11
33,17:11
33,20:6
33,21:22
33,22:22
33,23:12
33,24:12
33,25:29
33,28:29
33,29:19
33,30:6
33,31:12
33,32:19
33,41:6
33,58:19
33,68:4
33,69:29
33,70:22
34,1:11
34,3:19
34,4:19
34,5:4
34,6:4
34,7:6
34,8:6
34,9:19
34,10:19
34,11:4
34,12:6
34,13:22
34,14:12
34,15:11
34,16:11
34,17:11
34,20:6
34,21:22
34,22:22
34,23:12
34,24:12
34,25:29
34,28:29
34,29:19
34,30:6
34,31:12
34,32:19
34,41:6
34,58:19
34,68:4
34,69:29
34,70:22
35,13:3
35,21:3
35,22:3
35,25:10
35,28:10
35,69:10
35,70:3
36,13:3
36,21:3
36,22:3
36,25:10
36,28:10
36,53:15
36,60:15
36,63:15
36,69:10
36,70:3
41,1:5
41,3:13
41,4:13
41,9:13
41,10:13
41,13:16
41,14:6
41,15:5
41,16:5
41,17:5
41,21:16
41,22:16
41,23:6
41,24:6
41,25:23
41,28:23
41,29:13
41,31:6
41,32:13
41,35:13
41,36:13
41,37:28
41,38:28
41,39:28
41,40:28
41,44:13
41,45:13
41,51:8
41,52:8
41,53:28
41,54:8
41,56:8
41,58:13
41,60:28
41,61:8
41,62:13
41,63:28
41,69:23
41,70:16
42,1:5
42,3:13
42,4:13
42,9:13
42,10:13
42,13:16
42,14:6
42,15:5
42,16:5
42,17:5
42,21:16
42,22:16
42,23:6
42,24:6
42,25:23
42,28:23
42,29:13
42,31:6
42,32:13
42,35:13
42,36:13
42,37:28
42,38:28
42,39:28
42,40:28
42,44:13
42,45:13
42,51:8
42,52:8
42,53:28
42,54:8
42,56:8
42,58:13
42,60:28
42,61:8
42,62:13
42,63:28
42,69:23
42,70:16
43,1:14
43,3:22
43,4:22
43,5:7
43,6:7
43,7:9
43,8:9
43,9:22
43,10:22
43,11:7
43,12:9
43,13:25
43,14:15
43,15:14
43,16:14
43,17:14
43,20:9
43,21:25
43,22:25
43,23:15
43,24:15
43,25:32
43,26:3
43,27:3
43,28:32
43,29:22
43,30:9
43,31:15
43,32:22
43,33:3
43,34:3
43,35:22
43,36:22
43,37:37
43,38:37
43,39:37
43,40:37
43,41:9
43,42:9
43,44:22
43,45:22
43,46:9
43,48:9
43,49:9
43,51:17
43,52:17
43,53:37
43,54:17
43,56:17
43,58:22
43,59:3
43,60:37
43,61:17
43,62:22
43,63:37
43,64:9
43,68:7
43,69:32
43,70:25
44,13:3
44,21:3
44,22:3
44,25:10
44,28:10
44,37:15
44,38:15
44,39:15
44,40:15
44,53:15
44,60:15
44,63:15
44,69:10
44,70:3
45,13:3
45,21:3
45,22:3
45,25:10
45,28:10
45,37:15
45,38:15
45,39:15
45,40:15
45,53:15
45,60:15
45,63:15
45,69:10
45,70:3
46,1:5
46,3:13
46,4:13
46,9:13
46,10:13
46,13:16
46,14:6
46,15:5
46,16:5
46,17:5
46,21:16
46,22:16
46,23:6
46,24:6
46,25:23
46,28:23
46,29:13
46,31:6
46,32:13
46,35:13
46,36:13
46,37:28
46,38:28
46,39:28
46,40:28
46,44:13
46,45:13
46,51:8
46,52:8
46,53:28
46,54:8
46,56:8
46,58:13
46,60:28
46,61:8
46,62:13
46,63:28
46,69:23
46,70:16
47,1:14
47,3:22
47,4:22
47,5:7
47,6:7
47,7:9
47,8:9
47,9:22
47,10:22
47,11:7
47,12:9
47,13:25
47,14:15
47,15:14
47,16:14
47,17:14
47,20:9
47,21:25
47,22:25
47,23:15
47,24:15
47,25:32
47,26:3
47,27:3
47,28:32
47,29:22
47,30:9
47,31:15
47,32:22
47,33:3
47,34:3
47,35:22
47,36:22
47,37:37
47,38:37
47,39:37
47,40:37
47,41:9
47,42:9
47,44:22
47,45:22
47,46:9
47,48:9
47,49:9
47,51:17
47,52:17
47,53:37
47,54:17
47,56:17
47,58:22
47,59:3
47,60:37
47,61:17
47,62:22
47,63:37
47,64:9
47,68:7
47,69:32
47,70:25
48,1:5
48,3:13
48,4:13
48,9:13
48,10:13
48,13:16
48,14:6
48,15:5
48,16:5
48,17:5
48,21:16
48,22:16
48,23:6
48,24:6
48,25:23
48,28:23
48,29:13
48,31:6
48,32:13
48,35:13
48,36:13
48,37:28
48,38:28
48,39:28
48,40:28
48,44:13
48,45:13
48,51:8
48,52:8
48,53:28
48,54:8
48,56:8
48,58:13
48,60:28
48,61:8
48,62:13
48,63:28
48,69:23
48,70:16
49,1:5
49,3:13
49,4:13
49,9:13
49,10:13
49,13:16
49,14:6
49,15:5
49,16:5
49,17:5
49,21:16
49,22:16
49,23:6
49,24:6
49,25:23
49,28:23
49,29:13
49,31:6
49,32:13
49,35:13
49,36:13
49,37:28
49,38:28
49,39:28
49,40:28
49,44:13
49,45:13
49,51:8
49,52:8
49,53:28
49,54:8
49,56:8
49,58:13
49,60:28
49,61:8
49,62:13
49,63:28
49,69:23
49,70:16
50,1:14
50,3:22
50,4:22
50,5:7
50,6:7
50,7:9
50,8:9
50,9:22
50,10:22
50,11:7
50,12:9
50,13:25
50,14:15
50,15:14
50,16:14
50,17:14
50,20:9
50,21:25
50,22:25
50,23:15
50,24:15
50,25:32
50,26:3
50,27:3
50,28:32
50,29:22
50,30:9
50,31:15
50,32:22
50,33:3
50,34:3
50,35:22
50,36:22
50,37:37
50,38:37
50,39:37
50,40:37
50,41:9
50,42:9
50,44:22
50,45:22
50,46:9
50,48:9
50,49:9
50,51:17
50,52:17
50,53:37
50,54:17
50,56:17
50,58:22
50,59:3
50,60:37
50,61:17
50,62:22
50,63:37
50,64:9
50,68:7
50,69:32
50,70:25
51,3:5
51,4:5
51,9:5
51,10:5
51,13:8
51,21:8
51,22:8
51,25:15
51,28:15
51,29:5
51,32:5
51,35:5
51,36:5
51,37:20
51,38:20
51,39:20
51,40:20
51,44:5
51,45:5
51,53:20
51,58:5
51,60:20
51,62:5
51,63:20
51,69:15
51,70:8
52,3:5
52,4:5
52,9:5
52,10:5
52,13:8
52,21:8
52,22:8
52,25:15
52,28:15
52,29:5
52,32:5
52,35:5
52,36:5
52,37:20
52,38:20
52,39:20
52,40:20
52,44:5
52,45:5
52,53:20
52,58:5
52,60:20
52,62:5
52,63:20
52,69:15
52,70:8
54,3:5
54,4:5
54,9:5
54,10:5
54,13:8
54,21:8
54,22:8
54,25:15
54,28:15
54,29:5
54,32:5
54,35:5
54,36:5
54,37:20
54,38:20
54,39:20
54,40:20
54,44:5
54,45:5
54,53:20
54,58:5
54,60:20
54,62:5
54,63:20
54,69:15
54,70:8
55,1:14
55,3:22
55,4:22
55,5:7
55,6:7
55,7:9
55,8:9
55,9:22
55,10:22
55,11:7
55,12:9
55,13:25
55,14:15
55,15:14
55,16:14
55,17:14
55,20:9
55,21:25
55,22:25
55,23:15
55,24:15
55,25:32
55,26:3
55,27:3
55,28:32
55,29:22
55,30:9
55,31:15
55,32:22
55,33:3
55,34:3
55,35:22
55,36:22
55,37:37
55,38:37
55,39:37
55,40:37
55,41:9
55,42:9
55,44:22
55,45:22
55,46:9
55,48:9
55,49:9
55,51:17
55,52:17
55,53:37
55,54:17
55,56:17
55,58:22
55,59:3
55,60:37
55,61:17
55,62:22
55,63:37
55,64:9
55,68:7
55,69:32
55,70:25
56,3:5
56,4:5
56,9:5
56,10:5
56,13:8
56,21:8
56,22:8
56,25:15
56,28:15
56,29:5
56,32:5
56,35:5
56,36:5
56,37:20
56,38:20
56,39:20
56,40:20
56,44:5
56,45:5
56,53:20
56,58:5
56,60:20
56,62:5
56,63:20
56,69:15
56,70:8
57,1:20
57,3:28
57,4:28
57,5:13
57,6:13
57,7:15
57,8:15
57,9:28
57,10:28
57,11:13
57,12:15
57,13:31
57,14:21
57,15:20
57,16:20
57,17:20
57,20:15
57,21:31
57,22:31
57,23:21
57,24:21
57,25:38
57,26:9
57,27:9
57,28:38
57,29:28
57,30:15
57,31:21
57,32:28
57,33:9
57,34:9
57,35:28
57,36:28
57,37:43
57,38:43
57,39:43
57,40:43
57,41:15
57,42:15
57,43:6
57,44:28
57,45:28
57,46:15
57,47:6
57,48:15
57,49:15
57,50:6
57,51:23
57,52:23
57,53:43
57,54:23
57,55:6
57,56:23
57,61:23
57,62:28
57,63:43
57,64:15
57,65:6
57,66:6
57,67:6
57,68:13
57,69:38
57,70:31
58,13:3
58,21:3
58,22:3
58,25:10
58,28:10
58,37:15
58,38:15
58,39:15
58,40:15
58,53:15
58,63:15
58,69:10
58,70:3
59,1:11
59,3:19
59,4:19
59,5:4
59,6:4
59,7:6
59,8:6
59,9:19
59,10:19
59,11:4
59,12:6
59,13:22
59,14:12
59,15:11
59,16:11
59,17:11
59,20:6
59,21:22
59,22:22
59,23:12
59,24:12
59,25:29
59,28:29
59,29:19
59,30:6
59,31:12
59,32:19
59,35:19
59,36:19
59,37:34
59,38:34
59,39:34
59,40:34
59,41:6
59,42:6
59,44:19
59,45:19
59,46:6
59,48:6
59,49:6
59,51:14
59,52:14
59,53:34
59,54:14
59,56:14
59,58:19
59,61:14
59,62:19
59,63:34
59,64:6
59,68:4
59,69:29
59,70:22
61,3:5
61,4:5
61,9:5
61,10:5
61,13:8
61,21:8
61,22:8
61,25:15
61,28:15
61,29:5
61,32:5
61,35:5
61,36:5
61,37:20
61,38:20
61,39:20
61,40:20
61,44:5
61,45:5
61,53:20
61,58:5
61,60:20
61,62:5
61,63:20
61,69:15
61,70:8
62,13:3
62,21:3
62,22:3
62,25:10
62,28:10
62,37:15
62,38:15
62,39:15
62,40:15
62,53:15
62,60:15
62,69:10
62,70:3
64,1:5
64,3:13
64,4:13
64,9:13
64,10:13
64,13:16
64,14:6
64,15:5
64,16:5
64,17:5
64,21:16
64,22:16
64,23:6
64,24:6
64,25:23
64,28:23
64,29:13
64,31:6
64,32:13
64,35:13
64,36:13
64,37:28
64,38:28
64,39:28
64,40:28
64,44:13
64,45:13
64,51:8
64,52:8
64,53:28
64,54:8
64,56:8
64,58:13
64,60:28
64,61:8
64,62:13
64,63:28
64,69:23
64,70:16
65,1:14
65,3:22
65,4:22
65,5:7
65,6:7
65,7:9
65,8:9
65,9:22
65,10:22
65,11:7
65,12:9
65,13:25
65,14:15
65,15:14
65,16:14
65,17:14
65,20:9
65,21:25
65,22:25
65,23:15
65,24:15
65,25:32
65,26:3
65,27:3
65,28:32
65,29:22
65,30:9
65,31:15
65,32:22
65,33:3
65,34:3
65,35:22
65,36:22
65,37:37
65,38:37
65,39:37
65,40:37
65,41:9
65,42:9
65,44:22
65,45:22
65,46:9
65,48:9
65,49:9
65,51:17
65,52:17
65,53:37
65,54:17
65,56:17
65,58:22
65,59:3
65,60:37
65,61:17
65,62:22
65,63:37
65,64:9
65,68:7
65,69:32
65,70:25
66,1:14
66,3:22
66,4:22
66,5:7
66,6:7
66,7:9
66,8:9
66,9:22
66,10:22
66,11:7
66,12:9
66,13:25
66,14:15
66,15:14
66,16:14
66,17:14
66,20:9
66,21:25
66,22:25
66,23:15
66,24:15
66,25:32
66,26:3
66,27:3
66,28:32
66,29:22
66,30:9
66,31:15
66,32:22
66,33:3
66,34:3
66,35:22
66,36:22
66,37:37
66,38:37
66,39:37
66,40:37
66,41:9
66,42:9
66,44:22
66,45:22
66,46:9
66,48:9
66,49:9
66,51:17
66,52:17
66,53:37
66,54:17
66,56:17
66,58:22
66,59:3
66,60:37
66,61:17
66,62:22
66,63:37
66,64:9
66,68:7
66,69:32
66,70:25
67,1:14
67,3:22
67,4:22
67,5:7
67,6:7
67,7:9
67,8:9
67,9:22
67,10:22
67,11:7
67,12:9
67,13:25
67,14:15
67,15:14
67,16:14
67,17:14
67,20:9
67,21:25
67,22:25
67,23:15
67,24:15
67,25:32
67,26:3
67,27:3
67,28:32
67,29:22
67,30:9
67,31:15
67,32:22
67,33:3
67,34:3
67,35:22
67,36:22
67,37:37
67,38:37
67,39:37
67,40:37
67,41:9
67,42:9
67,44:22
67,45:22
67,46:9
67,48:9
67,49:9
67,51:17
67,52:17
67,53:37
67,54:17
67,56:17
67,58:22
67,59:3
67,60:37
67,61:17
67,62:22
67,63:37
67,64:9
67,68:7
67,69:32
67,70:25
68,1:7
68,3:15
68,4:15
68,7:2
68,8:2
68,9:15
68,10:15
68,12:2
68,13:18
68,14:8
68,15:7
68,16:7
68,17:7
68,20:2
68,21:18
68,22:18
68,23:8
68,24:8
68,25:25
68,28:25
68,29:15
68,30:2
68,31:8
68,32:15
68,35:15
68,36:15
68,37:30
68,38:30
68,39:30
68,40:30
68,41:2
68,42:2
68,44:15
68,45:15
68,46:2
68,48:2
68,49:2
68,51:10
68,52:10
68,53:30
68,54:10
68,56:10
68,58:15
68,60:30
68,61:10
68,62:15
68,63:30
68,64:2
68,69:25
68,70:18
69,37:5
69,38:5
69,39:5
69,40:5
69,53:5
69,60:5
69,63:5
70,25:7
70,28:7
70,37:12
70,38:12
70,39:12
70,40:12
70,53:12
70,60:12
70,63:12
70,69:7

<end>

<optimal SALBP-1 value>
14


<rand seed>
467321153

<Lower Bounds>
Lm1=14
Lms1=14
Lm2=6
Lm3=7
Lm4=14
Best=14

<Optimal Stations (Iterations: 10)>
18
